Translating instance to solver...

Set parameter TimeLimit to value 28800
Gurobi Optimizer version 11.0.2 build v11.0.2rc0 (linux64 - "Ubuntu 22.04.4 LTS")

CPU model: Intel(R) Xeon(R) Gold 5120 CPU @ 2.20GHz, instruction set [SSE2|AVX|AVX2|AVX512]
Thread count: 28 physical cores, 56 logical processors, using up to 28 threads

Academic license 2463511 - for non-commercial use only - registered to lu___@cefet-rj.br
Optimize a model with 145385 rows, 68063 columns and 326945 nonzeros
Model fingerprint: 0xe02a116e
Variable types: 1 continuous, 68062 integer (67980 binary)
Coefficient statistics:
  Matrix range     [1e+00, 1e+05]
  Objective range  [3e-01, 8e-01]
  Bounds range     [1e+00, 8e+01]
  RHS range        [1e+00, 8e+01]
Presolve removed 123619 rows and 58773 columns
Presolve time: 3.49s
Presolved: 21766 rows, 9290 columns, 64998 nonzeros
Variable types: 0 continuous, 9290 integer (9209 binary)

Root relaxation: objective 1.381064e+00, 2146 iterations, 0.17 seconds (0.20 work units)

    Nodes    |    Current Node    |     Objective Bounds      |     Work
 Expl Unexpl |  Obj  Depth IntInf | Incumbent    BestBd   Gap | It/Node Time

     0     0    1.38106    0   86          -    1.38106      -     -    5s
H    0     0                       2.1235640    1.38106  35.0%     -    5s
     0     0    1.38106    0  178    2.12356    1.38106  35.0%     -    6s
H    0     0                       1.6735640    1.38106  17.5%     -    6s
     0     0    1.52356    0  191    1.67356    1.52356  8.96%     -    6s
     0     0     cutoff    0         1.67356    1.67356  0.00%     -    7s

Cutting planes:
  Learned: 12
  Gomory: 5
  Lift-and-project: 2
  Implied bound: 85
  MIR: 106
  StrongCG: 2
  Zero half: 4
  RLT: 26
  Relax-and-lift: 56
  BQP: 6

Explored 1 nodes (11442 simplex iterations) in 7.33 seconds (5.67 work units)
Thread count was 28 (of 56 available processors)

Solution count 2: 1.67356 2.12356 

Optimal solution found (tolerance 1.00e-04)
Best objective 1.673564000000e+00, best bound 1.673564000000e+00, gap 0.0000%

Solver Wallclock Time (for this epsilon): 7.36515998840332 s
Python wallclock Time (for this epsilon): 17.971258401870728 s


Total Elapsed Time (since program call): 1864.9539630413055 s

Results:

I = 1.6735639999999998 mA
C = 51.0 points
C ~= 20.400000000000002 km^2

Minimum Epsilon for this instance = 10
Maximum Epsilon for this instance = 100

Current Epsilon = 50


Preprocessing Time (for this epsilon): 0.013067007064819336 s


Updated solution vectors:
sol_I = [-1.223564,-1.223564,-1.6735639999999998,-1.6735635949810057,-1.6735639999999998]
sol_C = [10.0,20.0,52.0,56.9999839800992,51.0]
sol_eps = [10,20,30,40,50]
sol_gap = [0.0,0.0,0.0,0.0,0.0]
